Multi_Item_Capacited_Lot_Sizing.lp
\ENCODING=ISO-8859-1
\Problem name: ilog.cplex

Minimize
 obj: 400 y(1)(1)#0 + 4 I(1)(1)#2 + 150 y(1)(2)#3 + 3 I(1)(2)#5 + 100 y(1)(3)#6
      + 2 I(1)(3)#8 + 400 y(2)(1)#9 + 4 I(2)(1)#11 + 150 y(2)(2)#12
      + 3 I(2)(2)#14 + 100 y(2)(3)#15 + 2 I(2)(3)#17 + 400 y(3)(1)#18
      + 4 I(3)(1)#20 + 150 y(3)(2)#21 + 3 I(3)(2)#23 + 100 y(3)(3)#24
      + 2 I(3)(3)#26 + 400 y(4)(1)#27 + 4 I(4)(1)#29 + 150 y(4)(2)#30
      + 3 I(4)(2)#32 + 100 y(4)(3)#33 + 2 I(4)(3)#35 + 400 y(5)(1)#36
      + 4 I(5)(1)#38 + 150 y(5)(2)#39 + 3 I(5)(2)#41 + 100 y(5)(3)#42
      + 2 I(5)(3)#44
Subject To
 c1:  q(1)(1)#1 - I(1)(1)#2 + I(0)(1)#45  = 30
 c3:  q(1)(2)#4 - I(1)(2)#5 + I(0)(2)#46  = 0
 c5:  q(1)(3)#7 - I(1)(3)#8 + I(0)(3)#47  = 0
 c7:  I(1)(1)#2 + q(2)(1)#10 - I(2)(1)#11  = 0
 c9:  I(1)(2)#5 + q(2)(2)#13 - I(2)(2)#14  = 0
 c11: I(1)(3)#8 + q(2)(3)#16 - I(2)(3)#17  = 0
 c13: I(2)(1)#11 + q(3)(1)#19 - I(3)(1)#20  = 80
 c15: I(2)(2)#14 + q(3)(2)#22 - I(3)(2)#23  = 30
 c17: I(2)(3)#17 + q(3)(3)#25 - I(3)(3)#26  = 40
 c19: I(3)(1)#20 + q(4)(1)#28 - I(4)(1)#29  = 0
 c21: I(3)(2)#23 + q(4)(2)#31 - I(4)(2)#32  = 0
 c23: I(3)(3)#26 + q(4)(3)#34 - I(4)(3)#35  = 0
 c25: I(4)(1)#29 + q(5)(1)#37 - I(5)(1)#38  = 40
 c27: I(4)(2)#32 + q(5)(2)#40 - I(5)(2)#41  = 70
 c29: I(4)(3)#35 + q(5)(3)#43 - I(5)(3)#44  = 60
 c31: I(0)(1)#45  = 0
 c33: I(5)(1)#38  = 0
 c35: I(0)(2)#46  = 0
 c37: I(5)(2)#41  = 0
 c39: I(0)(3)#47  = 0
 c41: I(5)(3)#44  = 0
 c43: - 100 y(1)(1)#0 + q(1)(1)#1 <= 0
 c45: - 100 y(1)(2)#3 + q(1)(2)#4 <= 0
 c47: - 100 y(1)(3)#6 + q(1)(3)#7 <= 0
 c49: - 100 y(2)(1)#9 + q(2)(1)#10 <= 0
 c51: - 100 y(2)(2)#12 + q(2)(2)#13 <= 0
 c53: - 100 y(2)(3)#15 + q(2)(3)#16 <= 0
 c55: - 100 y(3)(1)#18 + q(3)(1)#19 <= 0
 c57: - 100 y(3)(2)#21 + q(3)(2)#22 <= 0
 c59: - 100 y(3)(3)#24 + q(3)(3)#25 <= 0
 c61: - 100 y(4)(1)#27 + q(4)(1)#28 <= 0
 c63: - 100 y(4)(2)#30 + q(4)(2)#31 <= 0
 c65: - 100 y(4)(3)#33 + q(4)(3)#34 <= 0
 c67: - 100 y(5)(1)#36 + q(5)(1)#37 <= 0
 c69: - 100 y(5)(2)#39 + q(5)(2)#40 <= 0
 c71: - 100 y(5)(3)#42 + q(5)(3)#43 <= 0
Bounds
 0 <= y(1)(1)#0 <= 1
 0 <= y(1)(2)#3 <= 1
 0 <= y(1)(3)#6 <= 1
 0 <= y(2)(1)#9 <= 1
 0 <= y(2)(2)#12 <= 1
 0 <= y(2)(3)#15 <= 1
 0 <= y(3)(1)#18 <= 1
 0 <= y(3)(2)#21 <= 1
 0 <= y(3)(3)#24 <= 1
 0 <= y(4)(1)#27 <= 1
 0 <= y(4)(2)#30 <= 1
 0 <= y(4)(3)#33 <= 1
 0 <= y(5)(1)#36 <= 1
 0 <= y(5)(2)#39 <= 1
 0 <= y(5)(3)#42 <= 1
Generals
 y(1)(1)#0  y(1)(2)#3  y(1)(3)#6  y(2)(1)#9  y(2)(2)#12  y(2)(3)#15 
 y(3)(1)#18  y(3)(2)#21  y(3)(3)#24  y(4)(1)#27  y(4)(2)#30  y(4)(3)#33 
 y(5)(1)#36  y(5)(2)#39  y(5)(3)#42 
End
