Multi_Item_Capacited_Lot_Sizing.log
Tried aggregator 2 times.
MIP Presolve eliminated 8 rows and 8 columns.
MIP Presolve modified 6 coefficients.
Aggregator did 8 substitutions.
Reduced MIP has 20 rows, 32 columns, and 49 nonzeros.
Reduced MIP has 14 binaries, 0 generals, 0 SOSs, and 0 indicators.
Presolve time = 0.00 sec. (0.06 ticks)
Found incumbent of value 5670.000000 after 0.00 sec. (0.10 ticks)
Probing time = 0.00 sec. (0.00 ticks)
Tried aggregator 1 time.
MIP Presolve eliminated 13 rows and 21 columns.
Reduced MIP has 7 rows, 11 columns, and 17 nonzeros.
Reduced MIP has 5 binaries, 0 generals, 0 SOSs, and 0 indicators.
Presolve time = 0.00 sec. (0.03 ticks)
Probing time = 0.00 sec. (0.00 ticks)
Tried aggregator 1 time.
Reduced MIP has 7 rows, 11 columns, and 17 nonzeros.
Reduced MIP has 5 binaries, 0 generals, 0 SOSs, and 0 indicators.
Presolve time = 0.00 sec. (0.01 ticks)
Probing time = 0.00 sec. (0.00 ticks)
MIP emphasis: balance optimality and feasibility.
MIP search method: dynamic search.
Parallel mode: deterministic, using up to 8 threads.
Root relaxation solution time = 0.00 sec. (0.01 ticks)

        Nodes                                         Cuts/
   Node  Left     Objective  IInf  Best Integer    Best Bound    ItCnt     Gap

*     0+    0                         3170.0000     1400.0000        0   55.84%
      0     0     1595.0000     1     3170.0000     1595.0000        0   49.68%
*     0+    0                         1700.0000     1595.0000        0    6.18%
      0     0        cutoff           1700.0000                      2    0.00%
Elapsed time = 0.01 sec. (2.30 ticks, tree = 0.00 MB, solutions = 2)

Cover cuts applied:  1

Root node processing (before b&c):
  Real time             =    0.01 sec. (2.31 ticks)
Parallel b&c, 8 threads:
  Real time             =    0.00 sec. (0.00 ticks)
  Sync time (average)   =    0.00 sec.
  Wait time (average)   =    0.00 sec.
                          ------------
Total (root+branch&cut) =    0.01 sec. (2.31 ticks)

Solution status = Optimal

Total Cost 1700.0
Time t = 0
Item j = 1
---> I[0][1] = 0.0
Item j = 2
---> I[0][2] = 0.0
Item j = 3
---> I[0][3] = 0.0

Time t = 1
Item j = 1
---> I[1][1] = 0.0
---> q[1][1] = 30.0
---> y[1][1] = 1.0
Item j = 2
---> I[1][2] = 0.0
---> q[1][2] = 0.0
---> y[1][2] = 0.0
Item j = 3
---> I[1][3] = 0.0
---> q[1][3] = 0.0
---> y[1][3] = 0.0

Time t = 2
Item j = 1
---> I[2][1] = 0.0
---> q[2][1] = 0.0
---> y[2][1] = 0.0
Item j = 2
---> I[2][2] = 0.0
---> q[2][2] = 0.0
---> y[2][2] = 0.0
Item j = 3
---> I[2][3] = 0.0
---> q[2][3] = 0.0
---> y[2][3] = 0.0

Time t = 3
Item j = 1
---> I[3][1] = 0.0
---> q[3][1] = 80.0
---> y[3][1] = 1.0
Item j = 2
---> I[3][2] = 0.0
---> q[3][2] = 30.0
---> y[3][2] = 1.0
Item j = 3
---> I[3][3] = 0.0
---> q[3][3] = 40.0
---> y[3][3] = 1.0

Time t = 4
Item j = 1
---> I[4][1] = 0.0
---> q[4][1] = 0.0
---> y[4][1] = 0.0
Item j = 2
---> I[4][2] = 0.0
---> q[4][2] = 0.0
---> y[4][2] = 0.0
Item j = 3
---> I[4][3] = 0.0
---> q[4][3] = 0.0
---> y[4][3] = 0.0

Time t = 5
Item j = 1
---> I[5][1] = 0.0
---> q[5][1] = 40.0
---> y[5][1] = 1.0
Item j = 2
---> I[5][2] = 0.0
---> q[5][2] = 70.0
---> y[5][2] = 1.0
Item j = 3
---> I[5][3] = 0.0
---> q[5][3] = 60.0
---> y[5][3] = 1.0

